18 4
71 96 97 55 74 99 88 65 37 98 89 15 41 41 58 84 30 69
63 90 94 36 73 91 74 48 48 102 91 36 32 45 42 82 13 79
76 78 96 62 79 107 75 69 55 109 75 20 39 28 51 75 33 75
60 74 109 57 76 113 82 68 57 103 80 20 24 39 52 72 36 74
